NAME: tsp51.tsp
COMMENT: Eric Albuquerque e Álvaro Freire - método utilizado: Christofides
TYPE: TOUR
DIMENSION: 51
TOTAL_WEIGHT: 438
TOUR_SECTION
1
22
27
6
14
25
13
41
19
40
42
44
15
33
45
37
17
4
18
47
12
46
51
48
8
26
31
28
3
20
35
36
23
24
7
43
39
10
49
9
30
34
50
16
2
29
21
38
5
11
32
EOF
